Gurobi Optimizer version 9.1.0 build v9.1.0rc0 (linux64)
Thread count: 8 physical cores, 16 logical processors, using up to 16 threads
Optimize a model with 104216 rows, 100800 columns and 576950 nonzeros
Model fingerprint: 0xc14981c2
Variable types: 0 continuous, 100800 integer (100800 binary)
Coefficient statistics:
  Matrix range     [1e+00, 1e+00]
  Objective range  [1e+01, 3e+04]
  Bounds range     [1e+00, 1e+00]
  RHS range        [1e+00, 2e+02]
Presolve added 0 rows and 1450 columns
Presolve removed 50 rows and 0 columns
Presolve time: 2.45s
Presolved: 104166 rows, 102250 columns, 431350 nonzeros
Variable types: 0 continuous, 102250 integer (102250 binary)
Found heuristic solution: objective 437783.00000

Concurrent LP optimizer: primal simplex, dual simplex, and barrier
Showing barrier log only...

Root barrier log...

Ordering time: 0.39s

Barrier statistics:
 Dense cols : 400
 AA' NZ     : 3.344e+05
 Factor NZ  : 1.300e+06 (roughly 100 MBytes of memory)
 Factor Ops : 3.284e+08 (less than 1 second per iteration)
 Threads    : 6

                  Objective                Residual
Iter       Primal          Dual         Primal    Dual     Compl     Time
   0   8.21473923e+07 -1.07024937e+08  3.36e+02 3.13e+01  8.82e+03     4s
   1   1.03074296e+06 -1.15236596e+08  4.38e+00 3.60e+03  4.67e+02     5s
   2   5.75190037e+05 -5.06267816e+07  9.93e-01 1.45e+03  1.81e+02     5s
   3   4.93630211e+05 -1.70311231e+07  3.78e-01 4.69e+02  5.99e+01     5s
   4   4.47389429e+05 -4.83832237e+05  4.56e-02 1.73e+01  3.08e+00     5s
   5   4.43326239e+05 -3.60350177e+04  4.07e-02 7.98e+00  1.58e+00     5s
   6   4.29854487e+05  1.26545624e+05  2.61e-02 4.57e+00  9.94e-01     5s
   7   4.22184632e+05  2.36985788e+05  2.18e-02 2.52e+00  6.04e-01     6s
   8   4.14578604e+05  2.78368470e+05  1.79e-02 1.70e+00  4.43e-01     6s
   9   4.07480903e+05  3.18127301e+05  1.50e-02 9.30e-01  2.89e-01     6s
  10   3.99710595e+05  3.39744863e+05  1.21e-02 4.91e-01  1.93e-01     6s
  11   3.92911346e+05  3.48116687e+05  9.69e-03 3.31e-01  1.44e-01     6s
  12   3.87286501e+05  3.52664683e+05  7.68e-03 2.46e-01  1.11e-01     7s
  13   3.83631741e+05  3.56113311e+05  6.38e-03 1.76e-01  8.82e-02     7s
  14   3.80546242e+05  3.59091253e+05  5.27e-03 1.22e-01  6.86e-02     7s
  15   3.77062790e+05  3.61048198e+05  3.99e-03 8.53e-02  5.12e-02     7s
  16   3.74550457e+05  3.62039101e+05  3.14e-03 7.07e-02  4.00e-02     7s
  17   3.73092931e+05  3.62797120e+05  2.60e-03 5.66e-02  3.29e-02     8s
  18   3.72320661e+05  3.63117842e+05  2.33e-03 5.03e-02  2.94e-02     8s
  19   3.70800774e+05  3.63586647e+05  1.77e-03 4.18e-02  2.31e-02     8s
  20   3.70219566e+05  3.63874919e+05  1.55e-03 3.68e-02  2.03e-02     8s
  21   3.69742229e+05  3.64221894e+05  1.37e-03 3.14e-02  1.76e-02     8s
  22   3.68898473e+05  3.64447537e+05  1.07e-03 2.71e-02  1.42e-02     9s
  23   3.68402413e+05  3.64643789e+05  8.89e-04 2.37e-02  1.20e-02     9s
  24   3.68216551e+05  3.64807491e+05  8.17e-04 2.09e-02  1.09e-02     9s
  25   3.68108741e+05  3.64895592e+05  7.79e-04 1.94e-02  1.03e-02     9s
  26   3.67870408e+05  3.65084451e+05  6.95e-04 1.63e-02  8.90e-03     9s
  27   3.67713723e+05  3.65233646e+05  6.35e-04 1.37e-02  7.92e-03    10s
  28   3.67439577e+05  3.65344648e+05  5.36e-04 1.16e-02  6.69e-03    10s
  29   3.67302761e+05  3.65422178e+05  4.86e-04 1.03e-02  6.00e-03    10s
  30   3.67113821e+05  3.65483602e+05  4.16e-04 9.24e-03  5.21e-03    10s
  31   3.67027296e+05  3.65506180e+05  3.84e-04 8.79e-03  4.86e-03    10s
  32   3.66911830e+05  3.65588860e+05  3.42e-04 7.27e-03  4.22e-03    10s
  33   3.66716394e+05  3.65640481e+05  2.70e-04 6.39e-03  3.44e-03    11s
  34   3.66648750e+05  3.65685999e+05  2.45e-04 5.55e-03  3.07e-03    11s
  35   3.66498901e+05  3.65735974e+05  1.89e-04 4.58e-03  2.44e-03    11s
  36   3.66439965e+05  3.65794311e+05  1.67e-04 3.48e-03  2.06e-03    11s
  37   3.66390991e+05  3.65831188e+05  1.48e-04 2.79e-03  1.79e-03    11s
  38   3.66342210e+05  3.65855754e+05  1.30e-04 2.38e-03  1.55e-03    11s
  39   3.66310912e+05  3.65870439e+05  1.18e-04 2.11e-03  1.40e-03    12s
  40   3.66280937e+05  3.65892270e+05  1.07e-04 1.74e-03  1.24e-03    12s
  41   3.66214453e+05  3.65906753e+05  8.41e-05 1.47e-03  9.80e-04    12s
  42   3.66189453e+05  3.65916411e+05  7.45e-05 1.29e-03  8.70e-04    12s
  43   3.66153112e+05  3.65923818e+05  6.11e-05 1.16e-03  7.31e-04    12s
  44   3.66131541e+05  3.65931269e+05  5.30e-05 1.03e-03  6.39e-04    12s
  45   3.66117643e+05  3.65938627e+05  4.79e-05 9.01e-04  5.71e-04    13s
  46   3.66100707e+05  3.65945796e+05  4.16e-05 7.81e-04  4.94e-04    13s
  47   3.66091020e+05  3.65952905e+05  3.80e-05 6.51e-04  4.40e-04    13s
  48   3.66079004e+05  3.65959465e+05  3.35e-05 5.39e-04  3.80e-04    13s
  49   3.66069001e+05  3.65964329e+05  2.99e-05 4.54e-04  3.33e-04    13s
  50   3.66059219e+05  3.65966090e+05  2.62e-05 4.23e-04  2.96e-04    13s
  51   3.66049059e+05  3.65969294e+05  2.23e-05 3.67e-04  2.54e-04    14s
  52   3.66038515e+05  3.65973013e+05  1.83e-05 2.97e-04  2.09e-04    14s
  53   3.66030631e+05  3.65974640e+05  1.53e-05 2.70e-04  1.78e-04    14s
  54   3.66024158e+05  3.65977257e+05  1.27e-05 2.24e-04  1.49e-04    14s
  55   3.66015167e+05  3.65979175e+05  9.28e-06 1.90e-04  1.15e-04    14s
  56   3.66012437e+05  3.65980733e+05  8.26e-06 1.63e-04  1.01e-04    14s
  57   3.66011028e+05  3.65982086e+05  7.72e-06 1.40e-04  9.23e-05    14s
  58   3.66006621e+05  3.65983134e+05  6.09e-06 1.22e-04  7.50e-05    15s
  59   3.66004842e+05  3.65983529e+05  5.41e-06 1.15e-04  6.81e-05    15s
  60   3.66001596e+05  3.65984814e+05  4.17e-06 9.26e-05  5.36e-05    15s
  61   3.65999659e+05  3.65985702e+05  3.43e-06 7.71e-05  4.46e-05    15s
  62   3.65998928e+05  3.65987084e+05  3.16e-06 5.43e-05  3.78e-05    15s
  63   3.65996919e+05  3.65988426e+05  2.41e-06 3.08e-05  2.70e-05    15s
  64   3.65995315e+05  3.65988836e+05  1.84e-06 2.40e-05  2.06e-05    16s
  65   3.65994058e+05  3.65989403e+05  1.35e-06 1.46e-05  1.48e-05    16s
  66   3.65993262e+05  3.65989956e+05  1.05e-06 6.10e-06  1.05e-05    16s
  67   3.65991938e+05  3.65990161e+05  5.37e-07 3.36e-06  5.64e-06    16s
  68   3.65991357e+05  3.65990206e+05  3.33e-07 2.79e-06  3.66e-06    16s
  69   3.65990924e+05  3.65990326e+05  1.78e-07 1.02e-06  1.90e-06    16s
  70   3.65990833e+05  3.65990357e+05  1.46e-07 6.34e-07  1.51e-06    17s
  71   3.65990819e+05  3.65990376e+05  1.41e-07 4.02e-07  1.40e-06    17s
  72   3.65990768e+05  3.65990377e+05  1.22e-07 3.83e-07  1.24e-06    17s
  73   3.65990494e+05  3.65990388e+05  2.66e-08 2.63e-07  3.37e-07    17s
  74   3.65990489e+05  3.65990393e+05  2.49e-08 2.10e-07  3.05e-07    17s
  75   3.65990421e+05  3.65990404e+05  2.74e-09 1.46e-07  5.58e-08    17s
  76   3.65990413e+05  3.65990411e+05  2.25e-10 1.21e-08  5.77e-09    17s

Barrier solved model in 76 iterations and 17.16 seconds
Optimal objective 3.65990413e+05


Root crossover log...

   57162 DPushes remaining with DInf 1.1734978e-03                17s
       0 DPushes remaining with DInf 0.0000000e+00                19s

     459 PPushes remaining with PInf 0.0000000e+00                19s
       0 PPushes remaining with PInf 0.0000000e+00                20s

  Push phase complete: Pinf 0.0000000e+00, Dinf 9.0718100e-11     20s


Root simplex log...

Iteration    Objective       Primal Inf.    Dual Inf.      Time
    9847    3.6599041e+05   0.000000e+00   0.000000e+00     20s
    9847    3.6599041e+05   0.000000e+00   0.000000e+00     20s

Solved with barrier

Root relaxation: objective 3.659904e+05, 9847 iterations, 16.38 seconds
Total elapsed time = 20.18s

    Nodes    |    Current Node    |     Objective Bounds      |     Work
 Expl Unexpl |  Obj  Depth IntInf | Incumbent    BestBd   Gap | It/Node Time

     0     0 365990.412    0 4851 437783.000 365990.412  16.4%     -   21s
H    0     0                    371378.00000 365990.412  1.45%     -   22s
H    0     0                    371335.00000 365990.412  1.44%     -   22s
H    0     0                    371202.00000 365990.412  1.40%     -   22s
     0     0 365998.059    0 5050 371202.000 365998.059  1.40%     -   38s
H    0     0                    371200.00000 365998.059  1.40%     -   39s
H    0     0                    370907.00000 365998.059  1.32%     -   72s
     0     0 365998.899    0 5048 370907.000 365998.899  1.32%     -   75s
     0     0 365999.002    0 5051 370907.000 365999.002  1.32%     -   77s
     0     0 366003.803    0 5059 370907.000 366003.803  1.32%     -   89s
H    0     0                    370883.00000 366003.803  1.32%     -   90s
     0     0 366004.404    0 5067 370883.000 366004.404  1.32%     -   91s
     0     0 366004.442    0 5053 370883.000 366004.442  1.32%     -   92s
     0     0 366018.584    0 5324 370883.000 366018.584  1.31%     -  108s
     0     0 366019.331    0 5326 370883.000 366019.331  1.31%     -  110s
     0     0 366019.468    0 5325 370883.000 366019.468  1.31%     -  111s
     0     0 366019.488    0 5324 370883.000 366019.488  1.31%     -  111s
     0     0 366032.317    0 5405 370883.000 366032.317  1.31%     -  120s
H    0     0                    370849.00000 366032.317  1.30%     -  122s
     0     0 366032.488    0 5415 370849.000 366032.488  1.30%     -  122s
     0     0 366032.502    0 5413 370849.000 366032.502  1.30%     -  122s
     0     0 366036.459    0 5760 370849.000 366036.459  1.30%     -  129s
     0     0 366036.805    0 5768 370849.000 366036.805  1.30%     -  130s
     0     0 366036.838    0 5769 370849.000 366036.838  1.30%     -  131s
     0     0 366041.694    0 6022 370849.000 366041.694  1.30%     -  139s
H    0     0                    370847.00000 366041.694  1.30%     -  140s
     0     0 366042.412    0 6014 370847.000 366042.412  1.30%     -  141s
     0     0 366042.450    0 6012 370847.000 366042.450  1.30%     -  142s
     0     0 366046.377    0 5707 370847.000 366046.377  1.29%     -  147s
     0     0 366046.832    0 5986 370847.000 366046.832  1.29%     -  150s
     0     0 366046.866    0 5989 370847.000 366046.866  1.29%     -  150s
     0     0 366050.176    0 5785 370847.000 366050.176  1.29%     -  156s
     0     0 366050.449    0 5607 370847.000 366050.449  1.29%     -  158s
     0     0 366050.469    0 5604 370847.000 366050.469  1.29%     -  159s
     0     0 366053.338    0 5711 370847.000 366053.338  1.29%     -  164s
     0     0 366053.598    0 5933 370847.000 366053.598  1.29%     -  166s
     0     0 366053.640    0 5886 370847.000 366053.640  1.29%     -  166s
     0     0 366057.890    0 5774 370847.000 366057.890  1.29%     -  172s
H    0     0                    370792.00000 366057.890  1.28%     -  173s
     0     0 366058.249    0 5773 370792.000 366058.249  1.28%     -  174s
     0     0 366058.305    0 5951 370792.000 366058.305  1.28%     -  174s
     0     0 366061.119    0 5920 370792.000 366061.119  1.28%     -  180s
     0     0 366061.301    0 5932 370792.000 366061.301  1.28%     -  182s
     0     0 366061.364    0 5922 370792.000 366061.364  1.28%     -  183s
     0     0 366065.469    0 5932 370792.000 366065.469  1.27%     -  188s
H    0     0                    370779.00000 366065.469  1.27%     -  190s
     0     0 366065.666    0 5924 370779.000 366065.666  1.27%     -  191s
     0     0 366065.703    0 5926 370779.000 366065.703  1.27%     -  191s
     0     0 366068.389    0 6024 370779.000 366068.389  1.27%     -  197s
     0     0 366068.545    0 6016 370779.000 366068.545  1.27%     -  199s
     0     0 366068.572    0 6018 370779.000 366068.572  1.27%     -  199s
     0     0 366070.797    0 5581 370779.000 366070.797  1.27%     -  205s
H    0     0                    370747.00000 366070.797  1.26%     -  206s
     0     0 366071.191    0 6031 370747.000 366071.191  1.26%     -  207s
     0     0 366071.198    0 6030 370747.000 366071.198  1.26%     -  207s
     0     0 366073.637    0 6030 370747.000 366073.637  1.26%     -  212s
     0     0 366074.029    0 6042 370747.000 366074.029  1.26%     -  215s
     0     0 366074.104    0 6019 370747.000 366074.104  1.26%     -  216s
     0     0 366074.134    0 6030 370747.000 366074.134  1.26%     -  216s
     0     0 366074.681    0 6037 370747.000 366074.681  1.26%     -  220s
H    0     0                    370736.00000 366074.681  1.26%     -  221s
     0     0 366074.759    0 6045 370736.000 366074.759  1.26%     -  222s
     0     0 366074.781    0 6046 370736.000 366074.781  1.26%     -  222s
     0     0 366076.304    0 5946 370736.000 366076.304  1.26%     -  227s
     0     0 366076.357    0 5950 370736.000 366076.357  1.26%     -  228s
     0     0 366077.551    0 6048 370736.000 366077.551  1.26%     -  233s
H    0     0                    370664.00000 366077.551  1.24%     -  234s
     0     0 366077.699    0 6047 370664.000 366077.699  1.24%     -  235s
     0     0 366077.716    0 6047 370664.000 366077.716  1.24%     -  236s
     0     0 366080.365    0 5946 370664.000 366080.365  1.24%     -  242s
     0     0 366080.604    0 5976 370664.000 366080.604  1.24%     -  244s
     0     0 366080.657    0 5970 370664.000 366080.657  1.24%     -  245s
     0     0 366082.279    0 6063 370664.000 366082.279  1.24%     -  250s
H    0     0                    370655.00000 366082.279  1.23%     -  251s
     0     0 366082.579    0 6061 370655.000 366082.579  1.23%     -  252s
     0     0 366082.630    0 6077 370655.000 366082.630  1.23%     -  253s
     0     0 366084.177    0 6122 370655.000 366084.177  1.23%     -  258s
     0     0 366084.328    0 6130 370655.000 366084.328  1.23%     -  260s
     0     0 366084.347    0 6132 370655.000 366084.347  1.23%     -  260s
     0     0 366085.223    0 6115 370655.000 366085.223  1.23%     -  265s
H    0     0                    370637.00000 366085.223  1.23%     -  266s
     0     0 366085.299    0 5973 370637.000 366085.299  1.23%     -  267s
     0     0 366086.287    0 6113 370637.000 366086.287  1.23%     -  271s
     0     0 366086.287    0 6095 370637.000 366086.287  1.23%     -  289s

Cutting planes:
  Zero half: 203

Explored 1 nodes (33499 simplex iterations) in 300.01 seconds
Thread count was 16 (of 16 available processors)

Solution count 10: 370637 370655 370664 ... 370883

Time limit reached
Best objective 3.706370000000e+05, best bound 3.660862866376e+05, gap 1.2278%

User-callback calls 23486, time in user-callback 0.33 sec
['/opt/local/stow/gurobi910/linux64/lib/libgurobi91.so']
Result: runtime=289.93sec; objective=370637; gap=0.0123%
Solution written to /autofs/unityaccount/cremi/mdeboute/Bureau/multi-period-flp/solution//instMulti_I50_J250_T8_0_result.txt
